Maximize
  9 x0_0_ + 9 x0_1_ + 9 x0_2_ + 9 x0_3_ + 9 x0_4_ + 2 x0_5_ + 2 x0_6_
   + 9 x0_7_ + 9 x0_8_ + 9 x0_9_ + 144 x1_5_ + 144 x1_6_ + 68 x2_5_
   + 68 x2_6_ + 9 x3_0_ + 9 x3_1_ + 9 x3_2_ + 9 x3_3_ + 9 x3_4_ + 2 x3_5_
   + 2 x3_6_ + 9 x3_7_ + 9 x3_8_ + 9 x3_9_ + 288 x4_5_ + 288 x4_6_
   + 18 x5_0_ + 18 x5_1_ + 18 x5_2_ + 18 x5_3_ + 18 x5_4_ + 4 x5_5_
   + 4 x5_6_ + 18 x5_7_ + 18 x5_8_ + 18 x5_9_ + 18 x6_0_ + 18 x6_1_
   + 18 x6_2_ + 18 x6_3_ + 18 x6_4_ + 4 x6_5_ + 4 x6_6_ + 18 x6_7_
   + 18 x6_8_ + 18 x6_9_ + 9 x7_0_ + 9 x7_1_ + 9 x7_2_ + 9 x7_3_ + 9 x7_4_
   + 2 x7_5_ + 2 x7_6_ + 9 x7_7_ + 9 x7_8_ + 9 x7_9_ + 216 x8_5_
   + 216 x8_6_ + 72 x9_5_ + 72 x9_6_ + 36 x10_0_ + 36 x10_1_ + 36 x10_2_
   + 36 x10_3_ + 36 x10_4_ + 8 x10_5_ + 8 x10_6_ + 36 x10_7_ + 36 x10_8_
   + 36 x10_9_ + 9 x11_0_ + 9 x11_1_ + 9 x11_2_ + 9 x11_3_ + 9 x11_4_
   + 2 x11_5_ + 2 x11_6_ + 9 x11_7_ + 9 x11_8_ + 9 x11_9_ + 360 x12_5_
   + 360 x12_6_ + 27 x13_0_ + 27 x13_1_ + 27 x13_2_ + 27 x13_3_ + 27 x13_4_
   + 6 x13_5_ + 6 x13_6_ + 27 x13_7_ + 27 x13_8_ + 27 x13_9_ + 36 x14_0_
   + 36 x14_1_ + 36 x14_2_ + 36 x14_3_ + 36 x14_4_ + 8 x14_5_ + 8 x14_6_
   + 36 x14_7_ + 36 x14_8_ + 36 x14_9_ + 27 x15_0_ + 27 x15_1_ + 27 x15_2_
   + 27 x15_3_ + 27 x15_4_ + 6 x15_5_ + 6 x15_6_ + 27 x15_7_ + 27 x15_8_
   + 27 x15_9_ + 63 x16_0_ + 63 x16_1_ + 63 x16_2_ + 63 x16_3_ + 63 x16_4_
   + 14 x16_5_ + 14 x16_6_ + 63 x16_7_ + 63 x16_8_ + 63 x16_9_ + 51 x17_5_
   + 51 x17_6_ + 34 x18_5_ + 34 x18_6_ + 27 x19_0_ + 27 x19_1_ + 27 x19_2_
   + 27 x19_3_ + 27 x19_4_ + 6 x19_5_ + 6 x19_6_ + 27 x19_7_ + 27 x19_8_
   + 27 x19_9_
Subject To
 R0: x0_0_ + x0_1_ + x0_2_ + x0_3_ + x0_4_ + x0_5_ + x0_6_ + x0_7_ + x0_8_
   + x0_9_ + x0_n_ = 1
 R1: x1_5_ + x1_6_ + x1_n_ = 1
 R2: x2_5_ + x2_6_ + x2_n_ = 1
 R3: x3_0_ + x3_1_ + x3_2_ + x3_3_ + x3_4_ + x3_5_ + x3_6_ + x3_7_ + x3_8_
   + x3_9_ + x3_n_ = 1
 R4: x4_5_ + x4_6_ + x4_n_ = 1
 R5: x5_0_ + x5_1_ + x5_2_ + x5_3_ + x5_4_ + x5_5_ + x5_6_ + x5_7_ + x5_8_
   + x5_9_ + x5_n_ = 1
 R6: x6_0_ + x6_1_ + x6_2_ + x6_3_ + x6_4_ + x6_5_ + x6_6_ + x6_7_ + x6_8_
   + x6_9_ + x6_n_ = 1
 R7: x7_0_ + x7_1_ + x7_2_ + x7_3_ + x7_4_ + x7_5_ + x7_6_ + x7_7_ + x7_8_
   + x7_9_ + x7_n_ = 1
 R8: x8_5_ + x8_6_ + x8_n_ = 1
 R9: x9_5_ + x9_6_ + x9_n_ = 1
 R10: x10_0_ + x10_1_ + x10_2_ + x10_3_ + x10_4_ + x10_5_ + x10_6_ + x10_7_
   + x10_8_ + x10_9_ + x10_n_ = 1
 R11: x11_0_ + x11_1_ + x11_2_ + x11_3_ + x11_4_ + x11_5_ + x11_6_ + x11_7_
   + x11_8_ + x11_9_ + x11_n_ = 1
 R12: x12_5_ + x12_6_ + x12_n_ = 1
 R13: x13_0_ + x13_1_ + x13_2_ + x13_3_ + x13_4_ + x13_5_ + x13_6_ + x13_7_
   + x13_8_ + x13_9_ + x13_n_ = 1
 R14: x14_0_ + x14_1_ + x14_2_ + x14_3_ + x14_4_ + x14_5_ + x14_6_ + x14_7_
   + x14_8_ + x14_9_ + x14_n_ = 1
 R15: x15_0_ + x15_1_ + x15_2_ + x15_3_ + x15_4_ + x15_5_ + x15_6_ + x15_7_
   + x15_8_ + x15_9_ + x15_n_ = 1
 R16: x16_0_ + x16_1_ + x16_2_ + x16_3_ + x16_4_ + x16_5_ + x16_6_ + x16_7_
   + x16_8_ + x16_9_ + x16_n_ = 1
 R17: x17_5_ + x17_6_ + x17_n_ = 1
 R18: x18_5_ + x18_6_ + x18_n_ = 1
 R19: x19_0_ + x19_1_ + x19_2_ + x19_3_ + x19_4_ + x19_5_ + x19_6_ + x19_7_
   + x19_8_ + x19_9_ + x19_n_ = 1
 R20: x0_0_ + x10_0_ <= 1
 R21: x0_1_ + x10_1_ <= 1
 R22: x0_2_ + x10_2_ <= 1
 R23: x0_3_ + x10_3_ <= 1
 R24: x0_4_ + x10_4_ <= 1
 R25: x0_5_ + x10_5_ <= 1
 R26: x0_6_ + x10_6_ <= 1
 R27: x0_7_ + x10_7_ <= 1
 R28: x0_8_ + x10_8_ <= 1
 R29: x0_9_ + x10_9_ <= 1
 R30: x0_0_ + x13_0_ <= 1
 R31: x0_1_ + x13_1_ <= 1
 R32: x0_2_ + x13_2_ <= 1
 R33: x0_3_ + x13_3_ <= 1
 R34: x0_4_ + x13_4_ <= 1
 R35: x0_5_ + x13_5_ <= 1
 R36: x0_6_ + x13_6_ <= 1
 R37: x0_7_ + x13_7_ <= 1
 R38: x0_8_ + x13_8_ <= 1
 R39: x0_9_ + x13_9_ <= 1
 R40: x0_0_ + x14_0_ <= 1
 R41: x0_1_ + x14_1_ <= 1
 R42: x0_2_ + x14_2_ <= 1
 R43: x0_3_ + x14_3_ <= 1
 R44: x0_4_ + x14_4_ <= 1
 R45: x0_5_ + x14_5_ <= 1
 R46: x0_6_ + x14_6_ <= 1
 R47: x0_7_ + x14_7_ <= 1
 R48: x0_8_ + x14_8_ <= 1
 R49: x0_9_ + x14_9_ <= 1
 R50: x0_0_ + x16_0_ <= 1
 R51: x0_1_ + x16_1_ <= 1
 R52: x0_2_ + x16_2_ <= 1
 R53: x0_3_ + x16_3_ <= 1
 R54: x0_4_ + x16_4_ <= 1
 R55: x0_5_ + x16_5_ <= 1
 R56: x0_6_ + x16_6_ <= 1
 R57: x0_7_ + x16_7_ <= 1
 R58: x0_8_ + x16_8_ <= 1
 R59: x0_9_ + x16_9_ <= 1
 R60: x0_0_ + x19_0_ <= 1
 R61: x0_1_ + x19_1_ <= 1
 R62: x0_2_ + x19_2_ <= 1
 R63: x0_3_ + x19_3_ <= 1
 R64: x0_4_ + x19_4_ <= 1
 R65: x0_5_ + x19_5_ <= 1
 R66: x0_6_ + x19_6_ <= 1
 R67: x0_7_ + x19_7_ <= 1
 R68: x0_8_ + x19_8_ <= 1
 R69: x0_9_ + x19_9_ <= 1
 R70: x1_5_ + x4_5_ <= 1
 R71: x1_6_ + x4_6_ <= 1
 R72: x1_5_ + x15_5_ <= 1
 R73: x1_6_ + x15_6_ <= 1
 R74: x1_5_ + x16_5_ <= 1
 R75: x1_6_ + x16_6_ <= 1
 R76: x2_5_ + x6_5_ <= 1
 R77: x2_6_ + x6_6_ <= 1
 R78: x2_5_ + x8_5_ <= 1
 R79: x2_6_ + x8_6_ <= 1
 R80: x2_5_ + x10_5_ <= 1
 R81: x2_6_ + x10_6_ <= 1
 R82: x2_5_ + x12_5_ <= 1
 R83: x2_6_ + x12_6_ <= 1
 R84: x2_5_ + x13_5_ <= 1
 R85: x2_6_ + x13_6_ <= 1
 R86: x2_5_ + x14_5_ <= 1
 R87: x2_6_ + x14_6_ <= 1
 R88: x2_5_ + x16_5_ <= 1
 R89: x2_6_ + x16_6_ <= 1
 R90: x2_5_ + x17_5_ <= 1
 R91: x2_6_ + x17_6_ <= 1
 R92: x3_0_ + x5_0_ <= 1
 R93: x3_1_ + x5_1_ <= 1
 R94: x3_2_ + x5_2_ <= 1
 R95: x3_3_ + x5_3_ <= 1
 R96: x3_4_ + x5_4_ <= 1
 R97: x3_5_ + x5_5_ <= 1
 R98: x3_6_ + x5_6_ <= 1
 R99: x3_7_ + x5_7_ <= 1
 R100: x3_8_ + x5_8_ <= 1
 R101: x3_9_ + x5_9_ <= 1
 R102: x3_0_ + x11_0_ <= 1
 R103: x3_1_ + x11_1_ <= 1
 R104: x3_2_ + x11_2_ <= 1
 R105: x3_3_ + x11_3_ <= 1
 R106: x3_4_ + x11_4_ <= 1
 R107: x3_5_ + x11_5_ <= 1
 R108: x3_6_ + x11_6_ <= 1
 R109: x3_7_ + x11_7_ <= 1
 R110: x3_8_ + x11_8_ <= 1
 R111: x3_9_ + x11_9_ <= 1
 R112: x1_5_ + x4_5_ <= 1
 R113: x1_6_ + x4_6_ <= 1
 R114: x3_5_ + x4_5_ <= 1
 R115: x3_6_ + x4_6_ <= 1
 R116: x4_5_ + x5_5_ <= 1
 R117: x4_6_ + x5_6_ <= 1
 R118: x4_5_ + x11_5_ <= 1
 R119: x4_6_ + x11_6_ <= 1
 R120: x4_5_ + x16_5_ <= 1
 R121: x4_6_ + x16_6_ <= 1
 R122: x3_0_ + x5_0_ <= 1
 R123: x3_1_ + x5_1_ <= 1
 R124: x3_2_ + x5_2_ <= 1
 R125: x3_3_ + x5_3_ <= 1
 R126: x3_4_ + x5_4_ <= 1
 R127: x3_5_ + x5_5_ <= 1
 R128: x3_6_ + x5_6_ <= 1
 R129: x3_7_ + x5_7_ <= 1
 R130: x3_8_ + x5_8_ <= 1
 R131: x3_9_ + x5_9_ <= 1
 R132: x5_0_ + x11_0_ <= 1
 R133: x5_1_ + x11_1_ <= 1
 R134: x5_2_ + x11_2_ <= 1
 R135: x5_3_ + x11_3_ <= 1
 R136: x5_4_ + x11_4_ <= 1
 R137: x5_5_ + x11_5_ <= 1
 R138: x5_6_ + x11_6_ <= 1
 R139: x5_7_ + x11_7_ <= 1
 R140: x5_8_ + x11_8_ <= 1
 R141: x5_9_ + x11_9_ <= 1
 R142: x6_0_ + x10_0_ <= 1
 R143: x6_1_ + x10_1_ <= 1
 R144: x6_2_ + x10_2_ <= 1
 R145: x6_3_ + x10_3_ <= 1
 R146: x6_4_ + x10_4_ <= 1
 R147: x6_5_ + x10_5_ <= 1
 R148: x6_6_ + x10_6_ <= 1
 R149: x6_7_ + x10_7_ <= 1
 R150: x6_8_ + x10_8_ <= 1
 R151: x6_9_ + x10_9_ <= 1
 R152: x6_0_ + x13_0_ <= 1
 R153: x6_1_ + x13_1_ <= 1
 R154: x6_2_ + x13_2_ <= 1
 R155: x6_3_ + x13_3_ <= 1
 R156: x6_4_ + x13_4_ <= 1
 R157: x6_5_ + x13_5_ <= 1
 R158: x6_6_ + x13_6_ <= 1
 R159: x6_7_ + x13_7_ <= 1
 R160: x6_8_ + x13_8_ <= 1
 R161: x6_9_ + x13_9_ <= 1
 R162: x6_0_ + x14_0_ <= 1
 R163: x6_1_ + x14_1_ <= 1
 R164: x6_2_ + x14_2_ <= 1
 R165: x6_3_ + x14_3_ <= 1
 R166: x6_4_ + x14_4_ <= 1
 R167: x6_5_ + x14_5_ <= 1
 R168: x6_6_ + x14_6_ <= 1
 R169: x6_7_ + x14_7_ <= 1
 R170: x6_8_ + x14_8_ <= 1
 R171: x6_9_ + x14_9_ <= 1
 R172: x6_0_ + x16_0_ <= 1
 R173: x6_1_ + x16_1_ <= 1
 R174: x6_2_ + x16_2_ <= 1
 R175: x6_3_ + x16_3_ <= 1
 R176: x6_4_ + x16_4_ <= 1
 R177: x6_5_ + x16_5_ <= 1
 R178: x6_6_ + x16_6_ <= 1
 R179: x6_7_ + x16_7_ <= 1
 R180: x6_8_ + x16_8_ <= 1
 R181: x6_9_ + x16_9_ <= 1
 R182: x7_0_ + x15_0_ <= 1
 R183: x7_1_ + x15_1_ <= 1
 R184: x7_2_ + x15_2_ <= 1
 R185: x7_3_ + x15_3_ <= 1
 R186: x7_4_ + x15_4_ <= 1
 R187: x7_5_ + x15_5_ <= 1
 R188: x7_6_ + x15_6_ <= 1
 R189: x7_7_ + x15_7_ <= 1
 R190: x7_8_ + x15_8_ <= 1
 R191: x7_9_ + x15_9_ <= 1
 R192: x7_0_ + x16_0_ <= 1
 R193: x7_1_ + x16_1_ <= 1
 R194: x7_2_ + x16_2_ <= 1
 R195: x7_3_ + x16_3_ <= 1
 R196: x7_4_ + x16_4_ <= 1
 R197: x7_5_ + x16_5_ <= 1
 R198: x7_6_ + x16_6_ <= 1
 R199: x7_7_ + x16_7_ <= 1
 R200: x7_8_ + x16_8_ <= 1
 R201: x7_9_ + x16_9_ <= 1
 R202: x7_0_ + x19_0_ <= 1
 R203: x7_1_ + x19_1_ <= 1
 R204: x7_2_ + x19_2_ <= 1
 R205: x7_3_ + x19_3_ <= 1
 R206: x7_4_ + x19_4_ <= 1
 R207: x7_5_ + x19_5_ <= 1
 R208: x7_6_ + x19_6_ <= 1
 R209: x7_7_ + x19_7_ <= 1
 R210: x7_8_ + x19_8_ <= 1
 R211: x7_9_ + x19_9_ <= 1
 R212: x0_5_ + x8_5_ <= 1
 R213: x0_6_ + x8_6_ <= 1
 R214: x8_5_ + x10_5_ <= 1
 R215: x8_6_ + x10_6_ <= 1
 R216: x8_5_ + x12_5_ <= 1
 R217: x8_6_ + x12_6_ <= 1
 R218: x8_5_ + x13_5_ <= 1
 R219: x8_6_ + x13_6_ <= 1
 R220: x8_5_ + x14_5_ <= 1
 R221: x8_6_ + x14_6_ <= 1
 R222: x8_5_ + x15_5_ <= 1
 R223: x8_6_ + x15_6_ <= 1
 R224: x8_5_ + x16_5_ <= 1
 R225: x8_6_ + x16_6_ <= 1
 R226: x8_5_ + x19_5_ <= 1
 R227: x8_6_ + x19_6_ <= 1
 R228: x0_0_ + x10_0_ <= 1
 R229: x0_1_ + x10_1_ <= 1
 R230: x0_2_ + x10_2_ <= 1
 R231: x0_3_ + x10_3_ <= 1
 R232: x0_4_ + x10_4_ <= 1
 R233: x0_5_ + x10_5_ <= 1
 R234: x0_6_ + x10_6_ <= 1
 R235: x0_7_ + x10_7_ <= 1
 R236: x0_8_ + x10_8_ <= 1
 R237: x0_9_ + x10_9_ <= 1
 R238: x6_0_ + x10_0_ <= 1
 R239: x6_1_ + x10_1_ <= 1
 R240: x6_2_ + x10_2_ <= 1
 R241: x6_3_ + x10_3_ <= 1
 R242: x6_4_ + x10_4_ <= 1
 R243: x6_5_ + x10_5_ <= 1
 R244: x6_6_ + x10_6_ <= 1
 R245: x6_7_ + x10_7_ <= 1
 R246: x6_8_ + x10_8_ <= 1
 R247: x6_9_ + x10_9_ <= 1
 R248: x10_0_ + x13_0_ <= 1
 R249: x10_1_ + x13_1_ <= 1
 R250: x10_2_ + x13_2_ <= 1
 R251: x10_3_ + x13_3_ <= 1
 R252: x10_4_ + x13_4_ <= 1
 R253: x10_5_ + x13_5_ <= 1
 R254: x10_6_ + x13_6_ <= 1
 R255: x10_7_ + x13_7_ <= 1
 R256: x10_8_ + x13_8_ <= 1
 R257: x10_9_ + x13_9_ <= 1
 R258: x10_0_ + x14_0_ <= 1
 R259: x10_1_ + x14_1_ <= 1
 R260: x10_2_ + x14_2_ <= 1
 R261: x10_3_ + x14_3_ <= 1
 R262: x10_4_ + x14_4_ <= 1
 R263: x10_5_ + x14_5_ <= 1
 R264: x10_6_ + x14_6_ <= 1
 R265: x10_7_ + x14_7_ <= 1
 R266: x10_8_ + x14_8_ <= 1
 R267: x10_9_ + x14_9_ <= 1
 R268: x10_0_ + x15_0_ <= 1
 R269: x10_1_ + x15_1_ <= 1
 R270: x10_2_ + x15_2_ <= 1
 R271: x10_3_ + x15_3_ <= 1
 R272: x10_4_ + x15_4_ <= 1
 R273: x10_5_ + x15_5_ <= 1
 R274: x10_6_ + x15_6_ <= 1
 R275: x10_7_ + x15_7_ <= 1
 R276: x10_8_ + x15_8_ <= 1
 R277: x10_9_ + x15_9_ <= 1
 R278: x10_0_ + x16_0_ <= 1
 R279: x10_1_ + x16_1_ <= 1
 R280: x10_2_ + x16_2_ <= 1
 R281: x10_3_ + x16_3_ <= 1
 R282: x10_4_ + x16_4_ <= 1
 R283: x10_5_ + x16_5_ <= 1
 R284: x10_6_ + x16_6_ <= 1
 R285: x10_7_ + x16_7_ <= 1
 R286: x10_8_ + x16_8_ <= 1
 R287: x10_9_ + x16_9_ <= 1
 R288: x10_0_ + x19_0_ <= 1
 R289: x10_1_ + x19_1_ <= 1
 R290: x10_2_ + x19_2_ <= 1
 R291: x10_3_ + x19_3_ <= 1
 R292: x10_4_ + x19_4_ <= 1
 R293: x10_5_ + x19_5_ <= 1
 R294: x10_6_ + x19_6_ <= 1
 R295: x10_7_ + x19_7_ <= 1
 R296: x10_8_ + x19_8_ <= 1
 R297: x10_9_ + x19_9_ <= 1
 R298: x3_0_ + x11_0_ <= 1
 R299: x3_1_ + x11_1_ <= 1
 R300: x3_2_ + x11_2_ <= 1
 R301: x3_3_ + x11_3_ <= 1
 R302: x3_4_ + x11_4_ <= 1
 R303: x3_5_ + x11_5_ <= 1
 R304: x3_6_ + x11_6_ <= 1
 R305: x3_7_ + x11_7_ <= 1
 R306: x3_8_ + x11_8_ <= 1
 R307: x3_9_ + x11_9_ <= 1
 R308: x5_0_ + x11_0_ <= 1
 R309: x5_1_ + x11_1_ <= 1
 R310: x5_2_ + x11_2_ <= 1
 R311: x5_3_ + x11_3_ <= 1
 R312: x5_4_ + x11_4_ <= 1
 R313: x5_5_ + x11_5_ <= 1
 R314: x5_6_ + x11_6_ <= 1
 R315: x5_7_ + x11_7_ <= 1
 R316: x5_8_ + x11_8_ <= 1
 R317: x5_9_ + x11_9_ <= 1
 R318: x0_5_ + x12_5_ <= 1
 R319: x0_6_ + x12_6_ <= 1
 R320: x6_5_ + x12_5_ <= 1
 R321: x6_6_ + x12_6_ <= 1
 R322: x8_5_ + x12_5_ <= 1
 R323: x8_6_ + x12_6_ <= 1
 R324: x10_5_ + x12_5_ <= 1
 R325: x10_6_ + x12_6_ <= 1
 R326: x12_5_ + x13_5_ <= 1
 R327: x12_6_ + x13_6_ <= 1
 R328: x12_5_ + x14_5_ <= 1
 R329: x12_6_ + x14_6_ <= 1
 R330: x12_5_ + x15_5_ <= 1
 R331: x12_6_ + x15_6_ <= 1
 R332: x12_5_ + x16_5_ <= 1
 R333: x12_6_ + x16_6_ <= 1
 R334: x12_5_ + x19_5_ <= 1
 R335: x12_6_ + x19_6_ <= 1
 R336: x0_0_ + x13_0_ <= 1
 R337: x0_1_ + x13_1_ <= 1
 R338: x0_2_ + x13_2_ <= 1
 R339: x0_3_ + x13_3_ <= 1
 R340: x0_4_ + x13_4_ <= 1
 R341: x0_5_ + x13_5_ <= 1
 R342: x0_6_ + x13_6_ <= 1
 R343: x0_7_ + x13_7_ <= 1
 R344: x0_8_ + x13_8_ <= 1
 R345: x0_9_ + x13_9_ <= 1
 R346: x6_0_ + x13_0_ <= 1
 R347: x6_1_ + x13_1_ <= 1
 R348: x6_2_ + x13_2_ <= 1
 R349: x6_3_ + x13_3_ <= 1
 R350: x6_4_ + x13_4_ <= 1
 R351: x6_5_ + x13_5_ <= 1
 R352: x6_6_ + x13_6_ <= 1
 R353: x6_7_ + x13_7_ <= 1
 R354: x6_8_ + x13_8_ <= 1
 R355: x6_9_ + x13_9_ <= 1
 R356: x10_0_ + x13_0_ <= 1
 R357: x10_1_ + x13_1_ <= 1
 R358: x10_2_ + x13_2_ <= 1
 R359: x10_3_ + x13_3_ <= 1
 R360: x10_4_ + x13_4_ <= 1
 R361: x10_5_ + x13_5_ <= 1
 R362: x10_6_ + x13_6_ <= 1
 R363: x10_7_ + x13_7_ <= 1
 R364: x10_8_ + x13_8_ <= 1
 R365: x10_9_ + x13_9_ <= 1
 R366: x13_0_ + x14_0_ <= 1
 R367: x13_1_ + x14_1_ <= 1
 R368: x13_2_ + x14_2_ <= 1
 R369: x13_3_ + x14_3_ <= 1
 R370: x13_4_ + x14_4_ <= 1
 R371: x13_5_ + x14_5_ <= 1
 R372: x13_6_ + x14_6_ <= 1
 R373: x13_7_ + x14_7_ <= 1
 R374: x13_8_ + x14_8_ <= 1
 R375: x13_9_ + x14_9_ <= 1
 R376: x13_0_ + x16_0_ <= 1
 R377: x13_1_ + x16_1_ <= 1
 R378: x13_2_ + x16_2_ <= 1
 R379: x13_3_ + x16_3_ <= 1
 R380: x13_4_ + x16_4_ <= 1
 R381: x13_5_ + x16_5_ <= 1
 R382: x13_6_ + x16_6_ <= 1
 R383: x13_7_ + x16_7_ <= 1
 R384: x13_8_ + x16_8_ <= 1
 R385: x13_9_ + x16_9_ <= 1
 R386: x13_0_ + x19_0_ <= 1
 R387: x13_1_ + x19_1_ <= 1
 R388: x13_2_ + x19_2_ <= 1
 R389: x13_3_ + x19_3_ <= 1
 R390: x13_4_ + x19_4_ <= 1
 R391: x13_5_ + x19_5_ <= 1
 R392: x13_6_ + x19_6_ <= 1
 R393: x13_7_ + x19_7_ <= 1
 R394: x13_8_ + x19_8_ <= 1
 R395: x13_9_ + x19_9_ <= 1
 R396: x0_0_ + x14_0_ <= 1
 R397: x0_1_ + x14_1_ <= 1
 R398: x0_2_ + x14_2_ <= 1
 R399: x0_3_ + x14_3_ <= 1
 R400: x0_4_ + x14_4_ <= 1
 R401: x0_5_ + x14_5_ <= 1
 R402: x0_6_ + x14_6_ <= 1
 R403: x0_7_ + x14_7_ <= 1
 R404: x0_8_ + x14_8_ <= 1
 R405: x0_9_ + x14_9_ <= 1
 R406: x6_0_ + x14_0_ <= 1
 R407: x6_1_ + x14_1_ <= 1
 R408: x6_2_ + x14_2_ <= 1
 R409: x6_3_ + x14_3_ <= 1
 R410: x6_4_ + x14_4_ <= 1
 R411: x6_5_ + x14_5_ <= 1
 R412: x6_6_ + x14_6_ <= 1
 R413: x6_7_ + x14_7_ <= 1
 R414: x6_8_ + x14_8_ <= 1
 R415: x6_9_ + x14_9_ <= 1
 R416: x10_0_ + x14_0_ <= 1
 R417: x10_1_ + x14_1_ <= 1
 R418: x10_2_ + x14_2_ <= 1
 R419: x10_3_ + x14_3_ <= 1
 R420: x10_4_ + x14_4_ <= 1
 R421: x10_5_ + x14_5_ <= 1
 R422: x10_6_ + x14_6_ <= 1
 R423: x10_7_ + x14_7_ <= 1
 R424: x10_8_ + x14_8_ <= 1
 R425: x10_9_ + x14_9_ <= 1
 R426: x13_0_ + x14_0_ <= 1
 R427: x13_1_ + x14_1_ <= 1
 R428: x13_2_ + x14_2_ <= 1
 R429: x13_3_ + x14_3_ <= 1
 R430: x13_4_ + x14_4_ <= 1
 R431: x13_5_ + x14_5_ <= 1
 R432: x13_6_ + x14_6_ <= 1
 R433: x13_7_ + x14_7_ <= 1
 R434: x13_8_ + x14_8_ <= 1
 R435: x13_9_ + x14_9_ <= 1
 R436: x14_0_ + x15_0_ <= 1
 R437: x14_1_ + x15_1_ <= 1
 R438: x14_2_ + x15_2_ <= 1
 R439: x14_3_ + x15_3_ <= 1
 R440: x14_4_ + x15_4_ <= 1
 R441: x14_5_ + x15_5_ <= 1
 R442: x14_6_ + x15_6_ <= 1
 R443: x14_7_ + x15_7_ <= 1
 R444: x14_8_ + x15_8_ <= 1
 R445: x14_9_ + x15_9_ <= 1
 R446: x14_0_ + x16_0_ <= 1
 R447: x14_1_ + x16_1_ <= 1
 R448: x14_2_ + x16_2_ <= 1
 R449: x14_3_ + x16_3_ <= 1
 R450: x14_4_ + x16_4_ <= 1
 R451: x14_5_ + x16_5_ <= 1
 R452: x14_6_ + x16_6_ <= 1
 R453: x14_7_ + x16_7_ <= 1
 R454: x14_8_ + x16_8_ <= 1
 R455: x14_9_ + x16_9_ <= 1
 R456: x14_0_ + x19_0_ <= 1
 R457: x14_1_ + x19_1_ <= 1
 R458: x14_2_ + x19_2_ <= 1
 R459: x14_3_ + x19_3_ <= 1
 R460: x14_4_ + x19_4_ <= 1
 R461: x14_5_ + x19_5_ <= 1
 R462: x14_6_ + x19_6_ <= 1
 R463: x14_7_ + x19_7_ <= 1
 R464: x14_8_ + x19_8_ <= 1
 R465: x14_9_ + x19_9_ <= 1
 R466: x7_0_ + x15_0_ <= 1
 R467: x7_1_ + x15_1_ <= 1
 R468: x7_2_ + x15_2_ <= 1
 R469: x7_3_ + x15_3_ <= 1
 R470: x7_4_ + x15_4_ <= 1
 R471: x7_5_ + x15_5_ <= 1
 R472: x7_6_ + x15_6_ <= 1
 R473: x7_7_ + x15_7_ <= 1
 R474: x7_8_ + x15_8_ <= 1
 R475: x7_9_ + x15_9_ <= 1
 R476: x10_0_ + x15_0_ <= 1
 R477: x10_1_ + x15_1_ <= 1
 R478: x10_2_ + x15_2_ <= 1
 R479: x10_3_ + x15_3_ <= 1
 R480: x10_4_ + x15_4_ <= 1
 R481: x10_5_ + x15_5_ <= 1
 R482: x10_6_ + x15_6_ <= 1
 R483: x10_7_ + x15_7_ <= 1
 R484: x10_8_ + x15_8_ <= 1
 R485: x10_9_ + x15_9_ <= 1
 R486: x14_0_ + x15_0_ <= 1
 R487: x14_1_ + x15_1_ <= 1
 R488: x14_2_ + x15_2_ <= 1
 R489: x14_3_ + x15_3_ <= 1
 R490: x14_4_ + x15_4_ <= 1
 R491: x14_5_ + x15_5_ <= 1
 R492: x14_6_ + x15_6_ <= 1
 R493: x14_7_ + x15_7_ <= 1
 R494: x14_8_ + x15_8_ <= 1
 R495: x14_9_ + x15_9_ <= 1
 R496: x15_0_ + x16_0_ <= 1
 R497: x15_1_ + x16_1_ <= 1
 R498: x15_2_ + x16_2_ <= 1
 R499: x15_3_ + x16_3_ <= 1
 R500: x15_4_ + x16_4_ <= 1
 R501: x15_5_ + x16_5_ <= 1
 R502: x15_6_ + x16_6_ <= 1
 R503: x15_7_ + x16_7_ <= 1
 R504: x15_8_ + x16_8_ <= 1
 R505: x15_9_ + x16_9_ <= 1
 R506: x15_0_ + x19_0_ <= 1
 R507: x15_1_ + x19_1_ <= 1
 R508: x15_2_ + x19_2_ <= 1
 R509: x15_3_ + x19_3_ <= 1
 R510: x15_4_ + x19_4_ <= 1
 R511: x15_5_ + x19_5_ <= 1
 R512: x15_6_ + x19_6_ <= 1
 R513: x15_7_ + x19_7_ <= 1
 R514: x15_8_ + x19_8_ <= 1
 R515: x15_9_ + x19_9_ <= 1
 R516: x0_0_ + x16_0_ <= 1
 R517: x0_1_ + x16_1_ <= 1
 R518: x0_2_ + x16_2_ <= 1
 R519: x0_3_ + x16_3_ <= 1
 R520: x0_4_ + x16_4_ <= 1
 R521: x0_5_ + x16_5_ <= 1
 R522: x0_6_ + x16_6_ <= 1
 R523: x0_7_ + x16_7_ <= 1
 R524: x0_8_ + x16_8_ <= 1
 R525: x0_9_ + x16_9_ <= 1
 R526: x6_0_ + x16_0_ <= 1
 R527: x6_1_ + x16_1_ <= 1
 R528: x6_2_ + x16_2_ <= 1
 R529: x6_3_ + x16_3_ <= 1
 R530: x6_4_ + x16_4_ <= 1
 R531: x6_5_ + x16_5_ <= 1
 R532: x6_6_ + x16_6_ <= 1
 R533: x6_7_ + x16_7_ <= 1
 R534: x6_8_ + x16_8_ <= 1
 R535: x6_9_ + x16_9_ <= 1
 R536: x7_0_ + x16_0_ <= 1
 R537: x7_1_ + x16_1_ <= 1
 R538: x7_2_ + x16_2_ <= 1
 R539: x7_3_ + x16_3_ <= 1
 R540: x7_4_ + x16_4_ <= 1
 R541: x7_5_ + x16_5_ <= 1
 R542: x7_6_ + x16_6_ <= 1
 R543: x7_7_ + x16_7_ <= 1
 R544: x7_8_ + x16_8_ <= 1
 R545: x7_9_ + x16_9_ <= 1
 R546: x10_0_ + x16_0_ <= 1
 R547: x10_1_ + x16_1_ <= 1
 R548: x10_2_ + x16_2_ <= 1
 R549: x10_3_ + x16_3_ <= 1
 R550: x10_4_ + x16_4_ <= 1
 R551: x10_5_ + x16_5_ <= 1
 R552: x10_6_ + x16_6_ <= 1
 R553: x10_7_ + x16_7_ <= 1
 R554: x10_8_ + x16_8_ <= 1
 R555: x10_9_ + x16_9_ <= 1
 R556: x13_0_ + x16_0_ <= 1
 R557: x13_1_ + x16_1_ <= 1
 R558: x13_2_ + x16_2_ <= 1
 R559: x13_3_ + x16_3_ <= 1
 R560: x13_4_ + x16_4_ <= 1
 R561: x13_5_ + x16_5_ <= 1
 R562: x13_6_ + x16_6_ <= 1
 R563: x13_7_ + x16_7_ <= 1
 R564: x13_8_ + x16_8_ <= 1
 R565: x13_9_ + x16_9_ <= 1
 R566: x14_0_ + x16_0_ <= 1
 R567: x14_1_ + x16_1_ <= 1
 R568: x14_2_ + x16_2_ <= 1
 R569: x14_3_ + x16_3_ <= 1
 R570: x14_4_ + x16_4_ <= 1
 R571: x14_5_ + x16_5_ <= 1
 R572: x14_6_ + x16_6_ <= 1
 R573: x14_7_ + x16_7_ <= 1
 R574: x14_8_ + x16_8_ <= 1
 R575: x14_9_ + x16_9_ <= 1
 R576: x15_0_ + x16_0_ <= 1
 R577: x15_1_ + x16_1_ <= 1
 R578: x15_2_ + x16_2_ <= 1
 R579: x15_3_ + x16_3_ <= 1
 R580: x15_4_ + x16_4_ <= 1
 R581: x15_5_ + x16_5_ <= 1
 R582: x15_6_ + x16_6_ <= 1
 R583: x15_7_ + x16_7_ <= 1
 R584: x15_8_ + x16_8_ <= 1
 R585: x15_9_ + x16_9_ <= 1
 R586: x16_0_ + x19_0_ <= 1
 R587: x16_1_ + x19_1_ <= 1
 R588: x16_2_ + x19_2_ <= 1
 R589: x16_3_ + x19_3_ <= 1
 R590: x16_4_ + x19_4_ <= 1
 R591: x16_5_ + x19_5_ <= 1
 R592: x16_6_ + x19_6_ <= 1
 R593: x16_7_ + x19_7_ <= 1
 R594: x16_8_ + x19_8_ <= 1
 R595: x16_9_ + x19_9_ <= 1
 R596: x0_5_ + x17_5_ <= 1
 R597: x0_6_ + x17_6_ <= 1
 R598: x2_5_ + x17_5_ <= 1
 R599: x2_6_ + x17_6_ <= 1
 R600: x8_5_ + x17_5_ <= 1
 R601: x8_6_ + x17_6_ <= 1
 R602: x10_5_ + x17_5_ <= 1
 R603: x10_6_ + x17_6_ <= 1
 R604: x12_5_ + x17_5_ <= 1
 R605: x12_6_ + x17_6_ <= 1
 R606: x13_5_ + x17_5_ <= 1
 R607: x13_6_ + x17_6_ <= 1
 R608: x14_5_ + x17_5_ <= 1
 R609: x14_6_ + x17_6_ <= 1
 R610: x15_5_ + x17_5_ <= 1
 R611: x15_6_ + x17_6_ <= 1
 R612: x16_5_ + x17_5_ <= 1
 R613: x16_6_ + x17_6_ <= 1
 R614: x17_5_ + x19_5_ <= 1
 R615: x17_6_ + x19_6_ <= 1
 R616: x3_5_ + x18_5_ <= 1
 R617: x3_6_ + x18_6_ <= 1
 R618: x4_5_ + x18_5_ <= 1
 R619: x4_6_ + x18_6_ <= 1
 R620: x5_5_ + x18_5_ <= 1
 R621: x5_6_ + x18_6_ <= 1
 R622: x11_5_ + x18_5_ <= 1
 R623: x11_6_ + x18_6_ <= 1
 R624: x0_0_ + x19_0_ <= 1
 R625: x0_1_ + x19_1_ <= 1
 R626: x0_2_ + x19_2_ <= 1
 R627: x0_3_ + x19_3_ <= 1
 R628: x0_4_ + x19_4_ <= 1
 R629: x0_5_ + x19_5_ <= 1
 R630: x0_6_ + x19_6_ <= 1
 R631: x0_7_ + x19_7_ <= 1
 R632: x0_8_ + x19_8_ <= 1
 R633: x0_9_ + x19_9_ <= 1
 R634: x7_0_ + x19_0_ <= 1
 R635: x7_1_ + x19_1_ <= 1
 R636: x7_2_ + x19_2_ <= 1
 R637: x7_3_ + x19_3_ <= 1
 R638: x7_4_ + x19_4_ <= 1
 R639: x7_5_ + x19_5_ <= 1
 R640: x7_6_ + x19_6_ <= 1
 R641: x7_7_ + x19_7_ <= 1
 R642: x7_8_ + x19_8_ <= 1
 R643: x7_9_ + x19_9_ <= 1
 R644: x10_0_ + x19_0_ <= 1
 R645: x10_1_ + x19_1_ <= 1
 R646: x10_2_ + x19_2_ <= 1
 R647: x10_3_ + x19_3_ <= 1
 R648: x10_4_ + x19_4_ <= 1
 R649: x10_5_ + x19_5_ <= 1
 R650: x10_6_ + x19_6_ <= 1
 R651: x10_7_ + x19_7_ <= 1
 R652: x10_8_ + x19_8_ <= 1
 R653: x10_9_ + x19_9_ <= 1
 R654: x13_0_ + x19_0_ <= 1
 R655: x13_1_ + x19_1_ <= 1
 R656: x13_2_ + x19_2_ <= 1
 R657: x13_3_ + x19_3_ <= 1
 R658: x13_4_ + x19_4_ <= 1
 R659: x13_5_ + x19_5_ <= 1
 R660: x13_6_ + x19_6_ <= 1
 R661: x13_7_ + x19_7_ <= 1
 R662: x13_8_ + x19_8_ <= 1
 R663: x13_9_ + x19_9_ <= 1
 R664: x14_0_ + x19_0_ <= 1
 R665: x14_1_ + x19_1_ <= 1
 R666: x14_2_ + x19_2_ <= 1
 R667: x14_3_ + x19_3_ <= 1
 R668: x14_4_ + x19_4_ <= 1
 R669: x14_5_ + x19_5_ <= 1
 R670: x14_6_ + x19_6_ <= 1
 R671: x14_7_ + x19_7_ <= 1
 R672: x14_8_ + x19_8_ <= 1
 R673: x14_9_ + x19_9_ <= 1
 R674: x15_0_ + x19_0_ <= 1
 R675: x15_1_ + x19_1_ <= 1
 R676: x15_2_ + x19_2_ <= 1
 R677: x15_3_ + x19_3_ <= 1
 R678: x15_4_ + x19_4_ <= 1
 R679: x15_5_ + x19_5_ <= 1
 R680: x15_6_ + x19_6_ <= 1
 R681: x15_7_ + x19_7_ <= 1
 R682: x15_8_ + x19_8_ <= 1
 R683: x15_9_ + x19_9_ <= 1
 R684: x16_0_ + x19_0_ <= 1
 R685: x16_1_ + x19_1_ <= 1
 R686: x16_2_ + x19_2_ <= 1
 R687: x16_3_ + x19_3_ <= 1
 R688: x16_4_ + x19_4_ <= 1
 R689: x16_5_ + x19_5_ <= 1
 R690: x16_6_ + x19_6_ <= 1
 R691: x16_7_ + x19_7_ <= 1
 R692: x16_8_ + x19_8_ <= 1
 R693: x16_9_ + x19_9_ <= 1
 R694: <= 1
 R695: 9 x0_0_ + 9 x0_1_ + 9 x0_2_ + 9 x0_3_ + 9 x0_4_ + 2 x0_5_ + 2 x0_6_
   + 9 x0_7_ + 9 x0_8_ + 9 x0_9_ + 144 x1_5_ + 144 x1_6_ + 68 x2_5_
   + 68 x2_6_ + 9 x3_0_ + 9 x3_1_ + 9 x3_2_ + 9 x3_3_ + 9 x3_4_ + 2 x3_5_
   + 2 x3_6_ + 9 x3_7_ + 9 x3_8_ + 9 x3_9_ + 288 x4_5_ + 288 x4_6_
   + 18 x5_0_ + 18 x5_1_ + 18 x5_2_ + 18 x5_3_ + 18 x5_4_ + 4 x5_5_
   + 4 x5_6_ + 18 x5_7_ + 18 x5_8_ + 18 x5_9_ + 18 x6_0_ + 18 x6_1_
   + 18 x6_2_ + 18 x6_3_ + 18 x6_4_ + 4 x6_5_ + 4 x6_6_ + 18 x6_7_
   + 18 x6_8_ + 18 x6_9_ + 9 x7_0_ + 9 x7_1_ + 9 x7_2_ + 9 x7_3_ + 9 x7_4_
   + 2 x7_5_ + 2 x7_6_ + 9 x7_7_ + 9 x7_8_ + 9 x7_9_ + 216 x8_5_
   + 216 x8_6_ + 72 x9_5_ + 72 x9_6_ + 36 x10_0_ + 36 x10_1_ + 36 x10_2_
   + 36 x10_3_ + 36 x10_4_ + 8 x10_5_ + 8 x10_6_ + 36 x10_7_ + 36 x10_8_
   + 36 x10_9_ + 9 x11_0_ + 9 x11_1_ + 9 x11_2_ + 9 x11_3_ + 9 x11_4_
   + 2 x11_5_ + 2 x11_6_ + 9 x11_7_ + 9 x11_8_ + 9 x11_9_ + 360 x12_5_
   + 360 x12_6_ + 27 x13_0_ + 27 x13_1_ + 27 x13_2_ + 27 x13_3_ + 27 x13_4_
   + 6 x13_5_ + 6 x13_6_ + 27 x13_7_ + 27 x13_8_ + 27 x13_9_ + 36 x14_0_
   + 36 x14_1_ + 36 x14_2_ + 36 x14_3_ + 36 x14_4_ + 8 x14_5_ + 8 x14_6_
   + 36 x14_7_ + 36 x14_8_ + 36 x14_9_ + 27 x15_0_ + 27 x15_1_ + 27 x15_2_
   + 27 x15_3_ + 27 x15_4_ + 6 x15_5_ + 6 x15_6_ + 27 x15_7_ + 27 x15_8_
   + 27 x15_9_ + 63 x16_0_ + 63 x16_1_ + 63 x16_2_ + 63 x16_3_ + 63 x16_4_
   + 14 x16_5_ + 14 x16_6_ + 63 x16_7_ + 63 x16_8_ + 63 x16_9_ + 51 x17_5_
   + 51 x17_6_ + 34 x18_5_ + 34 x18_6_ + 27 x19_0_ + 27 x19_1_ + 27 x19_2_
   + 27 x19_3_ + 27 x19_4_ + 6 x19_5_ + 6 x19_6_ + 27 x19_7_ + 27 x19_8_
   + 27 x19_9_ >= 1402
 R696: x0_2_ + x1_6_ + x2_n_ + x3_0_ + x4_5_ + x5_3_ + x6_8_ + x7_0_
   + x8_6_ + x9_5_ + x10_1_ + x11_4_ + x12_5_ + x13_7_ + x14_0_ + x15_2_
   + x16_3_ + x17_n_ + x18_6_ + x19_4_ <= 19
 R697: x0_7_ + x1_5_ + x2_n_ + x3_0_ + x4_6_ + x5_3_ + x6_0_ + x7_4_
   + x8_6_ + x9_6_ + x10_1_ + x11_4_ + x12_5_ + x13_4_ + x14_2_ + x15_7_
   + x16_9_ + x17_n_ + x18_5_ + x19_0_ <= 19
 R698: x0_9_ + x1_5_ + x2_n_ + x3_1_ + x4_6_ + x5_3_ + x6_4_ + x7_1_
   + x8_6_ + x9_5_ + x10_0_ + x11_4_ + x12_5_ + x13_8_ + x14_1_ + x15_8_
   + x16_3_ + x17_n_ + x18_5_ + x19_4_ <= 19
Bounds
Binaries
 x0_0_ x0_1_ x0_2_ x0_3_ x0_4_ x0_5_ x0_6_ x0_7_ x0_8_ x0_9_ x0_n_ x1_5_
 x1_6_ x1_n_ x2_5_ x2_6_ x2_n_ x3_0_ x3_1_ x3_2_ x3_3_ x3_4_ x3_5_ x3_6_
 x3_7_ x3_8_ x3_9_ x3_n_ x4_5_ x4_6_ x4_n_ x5_0_ x5_1_ x5_2_ x5_3_ x5_4_
 x5_5_ x5_6_ x5_7_ x5_8_ x5_9_ x5_n_ x6_0_ x6_1_ x6_2_ x6_3_ x6_4_ x6_5_
 x6_6_ x6_7_ x6_8_ x6_9_ x6_n_ x7_0_ x7_1_ x7_2_ x7_3_ x7_4_ x7_5_ x7_6_
 x7_7_ x7_8_ x7_9_ x7_n_ x8_5_ x8_6_ x8_n_ x9_5_ x9_6_ x9_n_ x10_0_ x10_1_
 x10_2_ x10_3_ x10_4_ x10_5_ x10_6_ x10_7_ x10_8_ x10_9_ x10_n_ x11_0_
 x11_1_ x11_2_ x11_3_ x11_4_ x11_5_ x11_6_ x11_7_ x11_8_ x11_9_ x11_n_
 x12_5_ x12_6_ x12_n_ x13_0_ x13_1_ x13_2_ x13_3_ x13_4_ x13_5_ x13_6_
 x13_7_ x13_8_ x13_9_ x13_n_ x14_0_ x14_1_ x14_2_ x14_3_ x14_4_ x14_5_
 x14_6_ x14_7_ x14_8_ x14_9_ x14_n_ x15_0_ x15_1_ x15_2_ x15_3_ x15_4_
 x15_5_ x15_6_ x15_7_ x15_8_ x15_9_ x15_n_ x16_0_ x16_1_ x16_2_ x16_3_
 x16_4_ x16_5_ x16_6_ x16_7_ x16_8_ x16_9_ x16_n_ x17_5_ x17_6_ x17_n_
 x18_5_ x18_6_ x18_n_ x19_0_ x19_1_ x19_2_ x19_3_ x19_4_ x19_5_ x19_6_
 x19_7_ x19_8_ x19_9_ x19_n_
End
